c description: Tseitin formula on Random 4-regular graph of 6 vertices, with odd charge
c generator: CNFgen (0.9.0)
c copyright: (C) 2012-2020 Massimo Lauria <massimo.lauria@uniroma1.it>
c url: https://massimolauria.net/cnfgen
c command line: cnfgen tseitin 6
c
p cnf 12 48
1 2 3 4 0
1 2 -3 -4 0
1 -2 3 -4 0
1 -2 -3 4 0
-1 2 3 -4 0
-1 2 -3 4 0
-1 -2 3 4 0
-1 -2 -3 -4 0
1 5 6 -7 0
1 5 -6 7 0
1 -5 6 7 0
1 -5 -6 -7 0
-1 5 6 7 0
-1 5 -6 -7 0
-1 -5 6 -7 0
-1 -5 -6 7 0
2 8 9 10 0
2 8 -9 -10 0
2 -8 9 -10 0
2 -8 -9 10 0
-2 8 9 -10 0
-2 8 -9 10 0
-2 -8 9 10 0
-2 -8 -9 -10 0
3 5 8 -11 0
3 5 -8 11 0
3 -5 8 11 0
3 -5 -8 -11 0
-3 5 8 11 0
-3 5 -8 -11 0
-3 -5 8 -11 0
-3 -5 -8 11 0
6 9 11 12 0
6 9 -11 -12 0
6 -9 11 -12 0
6 -9 -11 12 0
-6 9 11 -12 0
-6 9 -11 12 0
-6 -9 11 12 0
-6 -9 -11 -12 0
4 7 10 -12 0
4 7 -10 12 0
4 -7 10 12 0
4 -7 -10 -12 0
-4 7 10 12 0
-4 7 -10 -12 0
-4 -7 10 -12 0
-4 -7 -10 12 0
